52
44
40
40
40
40
40
52
52
46
62
62
62
74
66
70
70
54
58
62
62
56
52
52
52
52
46
46
46
46
46
56
48
48
40
32
32
32
32
32
32
24
34
42
50
58
64
66
62
58
50
46
46
42
42
56
52
52
56
50
58
58
64
48
48
48
48
48
42
36
36
36
36
36
32
36
36
36
36
36
44
44
44
44
44
44
44
54
54
68
68
68
66
58
58
54
50
50
46
34
34
30
42
42
30
30
30
30
30
26
26
28
36
32
36
36
36
36
36
36
40
40
36
36
36
36
52
52
52
52
50
50
50
50
50
54
54
54
34
34
34
32
36
32
32
28
28
28
28
28
22
22
22
22
22
22
22
32
32
34
42
46
46
46
36
36
36
36
36
48
52
52
52
40
40
40
40
40
40
44
44
40
38
34
34
28
28
28
28
28
28
28
28
26
26
34
34
34
34
34
34
34
34
36
32
32
32
32
36
32
32
32
32
32
32
32
32
32
36
44
44
44
38
34
34
34
36
34
34
40
40
40
40
40
40
40
40
46
46
46
46
46
46
18
18
18
18
18
18
18
18
18
18
18
18
18
18
18
18
18
18
18
18
28
28
28
28
28
28
28
28
28
28
28
28
28
28
28
28
28
28
34
34
34
32
32
32
30
30
30
30
26
26
26
26
26
26
26
26
28
24
24
24
24
24
24
24
24
24
24
28
28
28
28
28
28
26
26
32
32
32
32
32
32
32
32
32
32
32
32
32
32
32
32
32
32
32
32
32
32
34
34
34
24
24
24
24
24
24
24
24
24
24
24
24
24
20
20
20
20
20
20
20
20
14
14
14
14
14
14
14
14
22
22
22
22
22
22
22
22
22
22
22
22
22
22
22
22
22
22
22
22
22
22
22
24
24
24
24
20
20
20
20
20
20
20
18
18
18
18
18
18
18
18
18
18
18
18
18
18
18
22
22
22
22
22
22
22
22
20
20
20
18
18
18
18
14
14
14
14
14
14
14
16
16
16
16
16
16
16
16
16
16
16
16
16
16
16
16
16
16
16
16
16
16
16
20
20
20
20
20
20
20
20
20
20
20
20
20
20
20
20
20
20
20
14
14
14
14
14
14
14
14
14
14
14
14
14
14
14
14
14
14
14
14
14
14
14
14
14
14
14
14
14
14
14
14
14
14
14
14
14
14
14
14
14
14
14
14
14
14
14
14
14
14
14
14
14
14
14
14
14
14
14
14
14
14
14
14
16
14
14
14
14
14
14
14
14
14
14
14
14
14
14
14
14
14
14
14
14
14
14
14
14
14
14
14
14
14
14
14
14
14
14
16
16
16
16
16
16
16
16
16
16
16
16
16
16
16
16
16
16
16
16
16
16
14
14
14
14
14
14
14
14
14
14
14
14
14
14
14
14
14
14
14
14
14
14
14
14
14
14
14
14
14
14
14
14
14
14
14
14
14
14
14
14
14
14
14
14
14
14
14
14
14
14
14
14
14
14
14
14
14
14
14
14
14
14
14
14
14
14
14
14
14
14
14
14
14
14
14
14
14
14
14
14
14
14
14
14
14
14
14
14
14
14
14
14
14
14
14
14
14
14
14
14
14
14
14
14
14
14
14
14
14
14
14
14
14
14
14
14
14
16
16
16
16
14
14
14
14
14
14
14
14
14
14
14
14
14
14
14
14
14
14
14
14
14
14
14
14
14
14
14
14
14
14
14
14
14
14
14
14
14
14
14
14
14
14
14
14
14
14
14
14
14
14
14
14
14
14
14
14
14
14
14
14
14
14
14
14
14
14
14
14
14
14
14
14
14
14
14
14
14
14
14
14
14
14
14
14
14
14
14
14
14
14
14
14
14
14
14
14
14
14
14
14
14
14
14
14
14
14
14
14
14
14
14
14
14
14
14
14
14
14
14
14
14
14
14
14
14
14
14
14
14
14
14
14
14
14
14
14
14
14
14
14
14
14
14
14
14
14
14
14
14
14
14
14
14
14
14
14
14
14
14
14
14
14
14
14
14
14
14
14
14
14
14
14
14
14
14
14
14
14
14
14
14
14
14
14
14
14
14
14
14
14
14
14
14
14
14
14
14
14
14
14
14
14
14
14
14
14
14
14
14
14
14
14
14
14
14
14
14
14
14
14
14
14
14
14
14
14
14
14
14
14
14
14
14
14
14
14
14
14
14
14
14
14
14
14
14
14
14
14
14
14
14
14
14
14
14
14
14
14
14
14
14
14
14
14
14
14
14
14
14
14
14
14
14
